c 1=&0_0 2=&0_1 3=&0_2 4=&0_3 5=x_0 6=x_1 7=x_2 8=x_3 9=y_0 10=y_1 11=y_2 12=y_3 13=&1_0 14=&1_1 15=&1_2 16=&1_3 
p cnf 16 53
1 2 3 4 0
-1 -2 0
-1 -3 0
-1 -4 0
-2 -3 0
-2 -4 0
-3 -4 0
2 0
5 6 7 8 0
-5 -6 0
-5 -7 0
-5 -8 0
-6 -7 0
-6 -8 0
-7 -8 0
9 10 11 12 0
-9 -10 0
-9 -11 0
-9 -12 0
-10 -11 0
-10 -12 0
-11 -12 0
13 14 15 16 0
-13 -14 0
-13 -15 0
-13 -16 0
-14 -15 0
-14 -16 0
-15 -16 0
-5 -9 13 0
-5 -10 14 0
-5 -11 15 0
-5 -12 16 0
-6 -9 14 0
-6 -10 13 0
-6 -11 16 0
-6 -12 15 0
-7 -9 15 0
-7 -10 16 0
-7 -11 13 0
-7 -12 14 0
-8 -9 16 0
-8 -10 15 0
-8 -11 14 0
-8 -12 13 0
-1 13 0
1 -13 0
-2 14 0
2 -14 0
-3 15 0
3 -15 0
-4 16 0
4 -16 0
